input: C:\Users\ofer.guthmann\Documents\HSmtMuc\results\res_prop_muc\res_Cimatti_mathsat_cores\QF_IDL\FISCHER8-5-ninc.smt.cnf
### time 0.065
Summary: 90 390 42 4692 348 0 620
### lpf_literals 620
### UNSAT_by_pf 0
### iter 90
### true_assump_ratio 0.627302
### nettime 0.05
### longestcall 0.002
v 1 5 6 7 8 11 12 13 14 16 18 19 22 24 25 26 27 28 29 30 34 36 37 38 39 40 41 42 43 45 47 48 51 52 53 54 55 56 57 60 63 64 65 68 69 70 71 72 75 76 77 78 79 80 85 87 90 91 92 93 94 95 96 98 99 100 101 102 103 104 105 106 107 108 110 112 114 115 116 117 118 119 120 121 122 123 124 125 128 130 132 134 136 141 143 146 148 150 151 153 154 155 156 157 158 159 160 161 162 166 168 170 172 174 178 180 183 185 188 190 191 192 193 194 195 196 197 198 199 202 203 206 208 216 218 219 221 222 223 224 225 226 227 228 229 230 231 232 234 237 239 242 246 248 251 252 254 255 256 257 258 259 260 261 262 263 264 265 266 267 268 269 270 271 272 273 274 279 281 284 289 295 297 301 303 304 305 307 308 309 310 312 317 319 320 321 324 326 327 329 330 335 341 346 348 349 350 351 352 353 356 360 362 364 365 366 368 369 370 372 373 374 377 378 383 384 386 387 389 390 394 396 400 401 404 405 407 408 409 411 414 417 418 419 420 422 423 425 426 427 429 436 438 439 440 441 442 443 444 446 450 451 453 454 455 456 457 458 459 461 462 463 465 466 479 481 487 488 490 495 496 497 498 499 500 501 502 503 504 506 507 508 509 513 519 520 521 522 523 524 528 529 530 531 532 533 535 536 537 538 539 540 541 542 543 544 545 546 547 549 550 551 552 553 554 555 556 557 558 559 560 561 562 563 564 565 566 567 568 569 570 571 572 573 574 575 576 577 578 579 580 582 583 586 588 590 591 593 595 613 615 620 629 635 636 641 644 648 652 655 662 670 675 676 677 678 679 680 686 694 699 700 701 702 703 704 705 706 707 708 0
### decisions 130464
### pf_time 0.006
s UNSATISFIABLE
